$molecule
0 1
xxxxx
$end
$rem
SYM_IGNORE true
METHOD B3LYP
BASIS 6-31g(d)
JOBTYPE opt
SCF_CONVERGENCE 6
MAX_SCF_CYCLES 500
SCF_ALGORITHM DIIS
GEOM_OPT_MAX_CYCLES 35
GEOM_OPT_TOL_GRADIENT 4000
GEOM_OPT_TOL_DISPLACEMENT 16000
GEOM_OPT_TOL_ENERGY 5000
$end
