$molecule
0 1
xxxxx
$end
$rem
SYM_IGNORE true
METHOD B3LYP
BASIS 6-31g(d)
JOBTYPE opt
SCF_CONVERGENCE 6
MAX_SCF_CYCLES 500
GEN_SCFMAN_HYBRID_ALGO TRUE
GEN_SCFMAN_ALGO_1 DIIS
GEN_SCFMAN_CONV_1 2
GEN_SCFMAN_ITER_1 50
GEN_SCFMAN_ALGO_2 GDM
GEN_SCFMAN_CONV_2 4
GEN_SCFMAN_ITER_2 400
GEN_SCFMAN_ALGO_3 SGM_QLS
GEN_SCFMAN_CONV_3 6
GEN_SCFMAN_ITER_3 50
GEOM_OPT_MAX_CYCLES 35
GEOM_OPT_TOL_GRADIENT 4000
GEOM_OPT_TOL_DISPLACEMENT 16000
GEOM_OPT_TOL_ENERGY 5000
CIS_N_ROOTS 4
CIS_STATE_DERIV 1
CIS_SINGLETS TRUE
CIS_TRIPLETS FALSE
$end
